SECTION Graph
Nodes 123
Edges 122

E 11 12 1
E 11 15 1
E 12 16 1
E 13 15 1
E 13 45 1
E 16 32 1
E 16 48 1
E 17 18 1
E 17 19 1
E 18 20 1
E 18 22 1
E 18 50 1
E 19 275 1
E 20 84 1
E 23 55 1
E 23 151 1
E 32 288 1
E 41 297 1
E 45 301 1
E 48 176 1
E 49 50 1
E 49 113 1
E 50 306 1
E 55 311 1
E 59 187 1
E 59 315 1
E 65 67 1
E 65 69 1
E 67 99 1
E 68 72 1
E 68 324 1
E 69 197 1
E 70 72 1
E 70 102 1
E 84 212 1
E 89 91 1
E 89 93 1
E 91 92 1
E 92 124 1
E 93 125 1
E 99 355 1
E 102 358 1
E 113 241 1
E 113 369 1
E 124 380 1
E 125 126 1
E 126 382 1
E 131 132 1
E 131 135 1
E 131 163 1
E 132 164 1
E 135 151 1
E 138 142 1
E 138 202 1
E 142 158 1
E 153 155 1
E 153 157 1
E 155 187 1
E 157 413 1
E 158 190 1
E 163 419 1
E 165 421 1
E 176 432 1
E 190 446 1
E 202 234 1
E 209 241 1
E 209 465 1
E 212 216 1
E 212 244 1
E 216 224 1
E 233 234 1
E 233 489 1
E 239 495 1
E 244 248 1
E 244 500 1
E 261 269 1
E 265 269 1
E 269 301 1
E 275 279 1
E 275 283 1
E 279 343 1
E 280 288 1
E 280 312 1
E 283 315 1
E 284 288 1
E 284 412 1
E 290 306 1
E 290 418 1
E 297 301 1
E 311 312 1
E 324 356 1
E 334 366 1
E 343 375 1
E 346 378 1
E 355 359 1
E 356 364 1
E 358 486 1
E 359 375 1
E 364 380 1
E 366 382 1
E 378 382 1
E 386 388 1
E 386 418 1
E 388 392 1
E 392 424 1
E 410 412 1
E 410 442 1
E 413 445 1
E 421 437 1
E 424 432 1
E 437 445 1
E 442 446 1
E 459 463 1
E 459 491 1
E 463 479 1
E 463 495 1
E 465 466 1
E 466 470 1
E 470 502 1
E 479 511 1
E 486 502 1
E 489 491 1
END
SECTION Terminals
T 12
T 15
T 18
T 22
T 41
T 48
T 50
T 55
T 65
T 72
T 91
T 93
T 99
T 102
T 124
T 125
T 131
T 142
T 151
T 153
T 164
T 165
T 187
T 190
T 197
T 202
T 212
T 224
T 234
T 239
T 241
T 248
T 261
T 265
T 275
T 288
T 290
T 301
T 312
T 315
T 324
T 334
T 343
T 346
T 359
T 364
T 369
T 382
T 386
T 392
T 412
T 413
T 419
T 432
T 437
T 442
T 459
T 463
T 465
T 470
T 486
T 489
T 500
T 511
END
SECTION Cost
122
END
